[ForcegemService]	Type	Type_index	Cost	Discount
0	1	194	1	0
1	1	245	1	0
2	1	293	2	0
3	1	294	2	0
4	1	4096	3	0
5	1	4097	3	0
6	1	4098	3	0
7	1	4099	3	0
8	1	4100	2	0
9	1	4101	2	0
10	1	4102	2	0
11	1	4103	2	0
12	1	4104	2	0
13	1	4105	2	0
14	1	4106	3	0
15	1	4107	2	0
16	1	4108	2	0
17	1	4109	2	0
18	1	4110	3	0
19	1	4111	1	0
20	1	4112	2	0
21	1	4113	3	0
22	1	4114	3	0
23	1	4115	4	0
24	1	4116	5	0
25	1	4117	3	0
26	1	4118	3	0
27	1	4119	3	0
28	1	4121	2	0
29	1	4122	2	0
30	1	4123	2	0
31	1	4124	3	0
32	1	4220	2	0
33	1	4248	1	0
34	1	4249	1	0
35	1	4250	2	0
36	1	4263	3	0
37	1	4264	3	0
38	1	4265	3	0
39	1	4276	3	0
40	1	4277	3	0
41	1	4278	3	0
42	1	4279	3	0
43	1	4280	3	0
44	1	4282	3	0
45	1	4283	4	0
46	1	4364	3	0
47	1	4365	3	0
48	2	17	5	0
49	3	0	4	0
50	4	0	5	0
51	5	5	1	0
52	6	0	1	0
53	6	1	1	0
54	6	2	2	0
55	7	0	3	0
56	8	2	10	0
57	9	2	10	0
58	10	2	10	0
59	11	1	1	0
60	11	2	2	0
61	11	3	3	0
62	11	4	4	0
63	11	5	5	0
64	12	1	1	0
65	12	2	1	0
66	12	3	1	0
67	12	4	1	0
68	12	5	1	0
69	12	6	1	0
70	12	7	1	0
71	12	8	1	0
72	12	9	1	0
73	12	10	1	0
74	13	25	2	0
75	13	40	4	0
76	13	100	6	0
77	13	200	10	0
78	14	0	30	0
79	14	1	10	0
80	14	2	10	0
81	14	3	10	0
82	14	4	10	0
83	15	0	2	0
84	17	0	1	0
85	17	1	2	0
86	17	2	3	0
87	17	3	4	0
88	17	4	5	0
89	18	1	1	0
90	18	2	2	0
91	18	3	3	0
92	18	4	4	0
93	18	5	5	0
94	19	1	5	0
95	19	2	5	0
96	19	3	5	0
97	19	4	5	0
98	19	5	5	0
99	19	6	5	0
100	19	7	5	0
101	19	8	5	0
102	19	9	5	0
103	19	10	5	0
104	19	11	5	0
105	19	12	5	0
106	20	1	1	0
107	20	2	2	0
108	20	3	3	0
109	20	4	4	0
110	20	5	5	0
111	21	0	5	0
112	22	10	1	0
113	24	4349	1	0
114	25	0	20	0
115	25	5	5	0
116	25	6	5	0
117	25	7	5	0
118	25	8	5	0
119	25	9	5	0
120	25	10	5	0
121	26	0	1	0
122	27	0	1	0
123	27	1	1	0
124	27	2	1	0
125	27	3	1	0
126	27	4	1	0
127	28	0	2	0
128	31	0	1	0
129	31	1	1	0
130	31	2	1	0
131	31	3	1	0
132	31	4	1	0
133	32	95	100	0
134	32	96	80	0
135	32	97	60	0
136	32	98	40	0
137	32	99	20	0
138	32	100	0	0
139	33	0	10	0
140	34	0	0	0
141	34	1	1	0
142	34	2	1	0
143	34	3	1	0
144	34	4	1	0
145	35	0	1	0
146	35	1	1	0
147	35	2	1	0
148	35	3	1	0
149	35	4	1	0

